12° run output:
{
    "Function": "kroB1000.tsp",
    "Problem dimension": [
        47,
        562,
        247,
        419,
        69,
        273,
        207,
        645,
        943,
        974,
        123,
        980,
        471,
        634,
        842,
        393,
        682,
        814,
        751,
        217,
        668,
        515,
        962,
        604,
        329,
        888,
        921,
        785,
        513,
        555,
        459,
        983,
        677,
        772,
        991,
        622,
        103,
        905,
        219,
        152,
        730,
        245,
        292,
        929,
        818,
        588,
        956,
        960,
        868,
        168,
        794,
        46,
        516,
        452,
        307,
        936,
        545,
        666,
        866,
        181,
        222,
        804,
        756,
        158,
        218,
        204,
        70,
        283,
        0,
        896,
        120,
        302,
        587,
        569,
        825,
        410,
        408,
        126,
        164,
        61,
        473,
        347,
        211,
        396,
        15,
        430,
        124,
        568,
        373,
        851,
        702,
        151,
        256,
        470,
        183,
        177,
        323,
        368,
        482,
        812,
        445,
        361,
        488,
        320,
        640,
        758,
        635,
        360,
        602,
        340,
        762,
        552,
        16,
        25,
        52,
        405,
        321,
        747,
        258,
        252,
        935,
        736,
        660,
        30,
        732,
        608,
        786,
        182,
        672,
        93,
        593,
        67,
        725,
        54,
        250,
        744,
        412,
        451,
        53,
        437,
        583,
        413,
        646,
        591,
        240,
        242,
        922,
        229,
        901,
        787,
        973,
        128,
        594,
        145,
        453,
        738,
        467,
        163,
        931,
        873,
        965,
        415,
        312,
        68,
        140,
        610,
        959,
        431,
        797,
        203,
        505,
        638,
        838,
        385,
        40,
        947,
        681,
        344,
        305,
        121,
        135,
        846,
        836,
        855,
        563,
        625,
        857,
        553,
        626,
        457,
        720,
        519,
        99,
        79,
        11,
        800,
        295,
        275,
        988,
        581,
        296,
        76,
        225,
        754,
        401,
        869,
        356,
        441,
        788,
        546,
        409,
        131,
        98,
        481,
        691,
        992,
        523,
        716,
        613,
        529,
        234,
        249,
        566,
        619,
        874,
        264,
        285,
        878,
        456,
        948,
        3,
        558,
        872,
        827,
        951,
        975,
        281,
        723,
        932,
        961,
        907,
        987,
        50,
        852,
        633,
        192,
        286,
        920,
        707,
        345,
        854,
        104,
        741,
        891,
        911,
        184,
        101,
        514,
        643,
        663,
        764,
        861,
        387,
        606,
        342,
        650,
        308,
        560,
        770,
        375,
        565,
        378,
        542,
        122,
        885,
        585,
        985,
        155,
        304,
        810,
        325,
        448,
        341,
        200,
        793,
        5,
        154,
        871,
        294,
        129,
        43,
        284,
        105,
        958,
        399,
        708,
        198,
        820,
        160,
        34,
        824,
        693,
        933,
        483,
        927,
        609,
        829,
        742,
        667,
        821,
        939,
        379,
        468,
        115,
        697,
        503,
        605,
        170,
        819,
        598,
        190,
        577,
        19,
        828,
        599,
        376,
        692,
        711,
        724,
        504,
        727,
        243,
        86,
        223,
        318,
        902,
        314,
        986,
        382,
        392,
        657,
        300,
        349,
        543,
        326,
        226,
        957,
        644,
        875,
        359,
        510,
        236,
        215,
        463,
        94,
        10,
        997,
        475,
        442,
        778,
        176,
        580,
        108,
        910,
        879,
        670,
        856,
        372,
        179,
        365,
        299,
        209,
        508,
        823,
        714,
        659,
        220,
        848,
        649,
        894,
        210,
        374,
        883,
        397,
        311,
        774,
        607,
        81,
        186,
        859,
        717,
        383,
        291,
        466,
        31,
        849,
        574,
        596,
        454,
        330,
        351,
        863,
        963,
        506,
        194,
        206,
        753,
        118,
        795,
        843,
        214,
        761,
        955,
        889,
        791,
        58,
        241,
        144,
        712,
        244,
        572,
        769,
        779,
        536,
        72,
        551,
        627,
        263,
        705,
        701,
        1,
        394,
        35,
        450,
        678,
        102,
        139,
        549,
        156,
        573,
        841,
        23,
        266,
        629,
        771,
        420,
        60,
        895,
        618,
        4,
        639,
        303,
        20,
        171,
        831,
        45,
        287,
        673,
        651,
        221,
        637,
        971,
        2,
        169,
        976,
        432,
        893,
        317,
        521,
        522,
        671,
        783,
        903,
        653,
        280,
        71,
        479,
        972,
        313,
        474,
        781,
        940,
        833,
        946,
        623,
        993,
        106,
        414,
        116,
        354,
        500,
        259,
        700,
        954,
        64,
        844,
        188,
        162,
        944,
        699,
        494,
        798,
        675,
        469,
        840,
        802,
        55,
        29,
        621,
        575,
        900,
        493,
        88,
        228,
        924,
        8,
        735,
        695,
        166,
        157,
        66,
        746,
        403,
        254,
        941,
        950,
        195,
        173,
        27,
        817,
        262,
        703,
        316,
        925,
        132,
        91,
        584,
        752,
        472,
        358,
        949,
        119,
        352,
        449,
        548,
        422,
        24,
        502,
        253,
        391,
        298,
        805,
        90,
        309,
        557,
        62,
        36,
        212,
        676,
        306,
        525,
        398,
        224,
        789,
        882,
        230,
        837,
        600,
        662,
        149,
        189,
        684,
        96,
        315,
        423,
        426,
        808,
        406,
        590,
        799,
        498,
        402,
        193,
        114,
        579,
        407,
        750,
        334,
        942,
        556,
        290,
        597,
        850,
        261,
        759,
        917,
        201,
        369,
        80,
        276,
        380,
        680,
        632,
        178,
        255,
        898,
        187,
        728,
        930,
        282,
        826,
        175,
        926,
        674,
        113,
        698,
        444,
        338,
        937,
        319,
        624,
        970,
        567,
        237,
        938,
        339,
        540,
        994,
        978,
        775,
        371,
        652,
        37,
        421,
        265,
        807,
        167,
        370,
        33,
        411,
        216,
        235,
        238,
        433,
        42,
        830,
        999,
        364,
        59,
        533,
        271,
        424,
        458,
        527,
        51,
        199,
        760,
        476,
        384,
        773,
        6,
        484,
        853,
        208,
        507,
        21,
        274,
        564,
        595,
        809,
        32,
        418,
        526,
        429,
        631,
        589,
        487,
        881,
        267,
        877,
        74,
        185,
        669,
        748,
        768,
        143,
        336,
        386,
        153,
        870,
        322,
        117,
        884,
        353,
        612,
        417,
        835,
        685,
        538,
        97,
        845,
        784,
        531,
        582,
        719,
        512,
        435,
        95,
        56,
        998,
        127,
        880,
        439,
        796,
        289,
        611,
        614,
        248,
        18,
        44,
        520,
        509,
        571,
        617,
        592,
        967,
        834,
        161,
        915,
        492,
        511,
        257,
        733,
        260,
        715,
        890,
        49,
        477,
        297,
        269,
        578,
        544,
        755,
        734,
        180,
        688,
        996,
        923,
        279,
        620,
        327,
        729,
        517,
        661,
        790,
        892,
        876,
        541,
        48,
        865,
        239,
        767,
        811,
        630,
        928,
        934,
        38,
        745,
        636,
        813,
        912,
        335,
        110,
        389,
        464,
        293,
        550,
        343,
        816,
        205,
        561,
        7,
        570,
        357,
        89,
        142,
        887,
        366,
        687,
        324,
        655,
        438,
        270,
        172,
        763,
        196,
        251,
        14,
        704,
        858,
        737,
        803,
        133,
        554,
        460,
        136,
        706,
        332,
        159,
        743,
        642,
        731,
        782,
        864,
        559,
        615,
        981,
        603,
        530,
        658,
        908,
        966,
        348,
        446,
        726,
        41,
        722,
        26,
        478,
        333,
        395,
        686,
        713,
        904,
        765,
        757,
        404,
        801,
        749,
        860,
        984,
        425,
        899,
        654,
        428,
        83,
        233,
        497,
        416,
        913,
        499,
        990,
        576,
        150,
        77,
        616,
        679,
        766,
        648,
        141,
        694,
        111,
        964,
        906,
        277,
        739,
        806,
        534,
        690,
        112,
        664,
        539,
        689,
        213,
        485,
        73,
        9,
        346,
        867,
        982,
        75,
        337,
        777,
        918,
        696,
        109,
        13,
        490,
        355,
        400,
        586,
        628,
        528,
        914,
        518,
        601,
        231,
        776,
        82,
        916,
        647,
        65,
        288,
        952,
        547,
        977,
        436,
        710,
        191,
        197,
        683,
        537,
        989,
        137,
        362,
        709,
        440,
        57,
        310,
        486,
        740,
        272,
        12,
        968,
        381,
        656,
        953,
        427,
        862,
        919,
        39,
        363,
        496,
        434,
        461,
        388,
        92,
        268,
        815,
        665,
        28,
        174,
        301,
        832,
        78,
        390,
        17,
        455,
        367,
        969,
        909,
        535,
        822,
        328,
        227,
        107,
        22,
        465,
        278,
        84,
        718,
        147,
        331,
        524,
        501,
        377,
        87,
        202,
        134,
        897,
        232,
        721,
        462,
        165,
        532,
        641,
        886,
        447,
        945,
        63,
        130,
        148,
        85,
        780,
        125,
        350,
        146,
        443,
        995,
        480,
        979,
        491,
        839,
        495,
        246,
        138,
        847,
        100,
        792,
        489
    ],
    "Global Optimum": 0,
    "Algorithm": "Genetic algorithm",
    "Parameters": {
        "population": 30,
        "offspring": 30,
        "mutation probability": 0.001,
        "crossover probability": 0.9
    },
    "Fitness": 1210254,
    "Solution": [
        47,
        562,
        247,
        419,
        69,
        273,
        207,
        645,
        943,
        974,
        123,
        980,
        471,
        634,
        842,
        393,
        682,
        814,
        751,
        217,
        668,
        515,
        962,
        604,
        329,
        888,
        921,
        785,
        513,
        555,
        459,
        983,
        677,
        772,
        991,
        622,
        103,
        905,
        219,
        152,
        730,
        245,
        292,
        929,
        818,
        588,
        956,
        960,
        868,
        168,
        794,
        46,
        516,
        452,
        307,
        936,
        545,
        666,
        866,
        181,
        222,
        804,
        756,
        158,
        218,
        204,
        70,
        283,
        0,
        896,
        120,
        302,
        587,
        569,
        825,
        410,
        408,
        126,
        164,
        61,
        473,
        347,
        211,
        396,
        15,
        430,
        124,
        568,
        373,
        851,
        702,
        151,
        256,
        470,
        183,
        177,
        323,
        368,
        482,
        812,
        445,
        361,
        488,
        320,
        640,
        758,
        635,
        360,
        602,
        340,
        762,
        552,
        16,
        25,
        52,
        405,
        321,
        747,
        258,
        252,
        935,
        736,
        660,
        30,
        732,
        608,
        786,
        182,
        672,
        93,
        593,
        67,
        725,
        54,
        250,
        744,
        412,
        451,
        53,
        437,
        583,
        413,
        646,
        591,
        240,
        242,
        922,
        229,
        901,
        787,
        973,
        128,
        594,
        145,
        453,
        738,
        467,
        163,
        931,
        873,
        965,
        415,
        312,
        68,
        140,
        610,
        959,
        431,
        797,
        203,
        505,
        638,
        838,
        385,
        40,
        947,
        681,
        344,
        305,
        121,
        135,
        846,
        836,
        855,
        563,
        625,
        857,
        553,
        626,
        457,
        720,
        519,
        99,
        79,
        11,
        800,
        295,
        275,
        988,
        581,
        296,
        76,
        225,
        754,
        401,
        869,
        356,
        441,
        788,
        546,
        409,
        131,
        98,
        481,
        691,
        992,
        523,
        716,
        613,
        529,
        234,
        249,
        566,
        619,
        874,
        264,
        285,
        878,
        456,
        948,
        3,
        558,
        872,
        827,
        951,
        975,
        281,
        723,
        932,
        961,
        907,
        987,
        50,
        852,
        633,
        192,
        286,
        920,
        707,
        345,
        854,
        104,
        741,
        891,
        911,
        184,
        101,
        514,
        643,
        663,
        764,
        861,
        387,
        606,
        342,
        650,
        308,
        560,
        770,
        375,
        565,
        378,
        542,
        122,
        885,
        585,
        985,
        155,
        304,
        810,
        325,
        448,
        341,
        200,
        793,
        5,
        154,
        871,
        294,
        129,
        43,
        284,
        105,
        958,
        399,
        708,
        198,
        820,
        160,
        34,
        824,
        693,
        933,
        483,
        927,
        609,
        829,
        742,
        667,
        821,
        939,
        379,
        468,
        115,
        697,
        503,
        605,
        170,
        819,
        598,
        190,
        577,
        19,
        828,
        599,
        376,
        692,
        711,
        724,
        504,
        727,
        243,
        86,
        223,
        318,
        902,
        314,
        986,
        382,
        392,
        657,
        300,
        349,
        543,
        326,
        226,
        957,
        644,
        875,
        359,
        510,
        236,
        215,
        463,
        94,
        10,
        997,
        475,
        442,
        778,
        176,
        580,
        108,
        910,
        879,
        670,
        856,
        372,
        179,
        365,
        299,
        209,
        508,
        823,
        714,
        659,
        220,
        848,
        649,
        894,
        210,
        374,
        883,
        397,
        311,
        774,
        607,
        81,
        186,
        859,
        717,
        383,
        291,
        466,
        31,
        849,
        574,
        596,
        454,
        330,
        351,
        863,
        963,
        506,
        194,
        206,
        753,
        118,
        795,
        843,
        214,
        761,
        955,
        889,
        791,
        58,
        241,
        144,
        712,
        244,
        572,
        769,
        779,
        536,
        72,
        551,
        627,
        263,
        705,
        701,
        1,
        394,
        35,
        450,
        678,
        102,
        139,
        549,
        156,
        573,
        841,
        23,
        266,
        629,
        771,
        420,
        60,
        895,
        618,
        4,
        639,
        303,
        20,
        171,
        831,
        45,
        287,
        673,
        651,
        221,
        637,
        971,
        2,
        169,
        976,
        432,
        893,
        317,
        521,
        522,
        671,
        783,
        903,
        653,
        280,
        71,
        479,
        972,
        313,
        474,
        781,
        940,
        833,
        946,
        623,
        993,
        106,
        414,
        116,
        354,
        500,
        259,
        700,
        954,
        64,
        844,
        188,
        162,
        944,
        699,
        494,
        798,
        675,
        469,
        840,
        802,
        55,
        29,
        621,
        575,
        900,
        493,
        88,
        228,
        924,
        8,
        735,
        695,
        166,
        157,
        66,
        746,
        403,
        254,
        941,
        950,
        195,
        173,
        27,
        817,
        262,
        703,
        316,
        925,
        132,
        91,
        584,
        752,
        472,
        358,
        949,
        119,
        352,
        449,
        548,
        422,
        24,
        502,
        253,
        391,
        298,
        805,
        90,
        309,
        557,
        62,
        36,
        212,
        676,
        306,
        525,
        398,
        224,
        789,
        882,
        230,
        837,
        600,
        662,
        149,
        189,
        684,
        96,
        315,
        423,
        426,
        808,
        406,
        590,
        799,
        498,
        402,
        193,
        114,
        579,
        407,
        750,
        334,
        942,
        556,
        290,
        597,
        850,
        261,
        759,
        917,
        201,
        369,
        80,
        276,
        380,
        680,
        632,
        178,
        255,
        898,
        187,
        728,
        930,
        282,
        826,
        175,
        926,
        674,
        113,
        698,
        444,
        338,
        937,
        319,
        624,
        970,
        567,
        237,
        938,
        339,
        540,
        994,
        978,
        775,
        371,
        652,
        37,
        421,
        265,
        807,
        167,
        370,
        33,
        411,
        216,
        235,
        238,
        433,
        42,
        830,
        999,
        364,
        59,
        533,
        271,
        424,
        458,
        527,
        51,
        199,
        760,
        476,
        384,
        773,
        6,
        484,
        853,
        208,
        507,
        21,
        274,
        564,
        595,
        809,
        32,
        418,
        526,
        429,
        631,
        589,
        487,
        881,
        267,
        877,
        74,
        185,
        669,
        748,
        768,
        143,
        336,
        386,
        153,
        870,
        322,
        117,
        884,
        353,
        612,
        417,
        835,
        685,
        538,
        97,
        845,
        784,
        531,
        582,
        719,
        512,
        435,
        95,
        56,
        998,
        127,
        880,
        439,
        796,
        289,
        611,
        614,
        248,
        18,
        44,
        520,
        509,
        571,
        617,
        592,
        967,
        834,
        161,
        915,
        492,
        511,
        257,
        733,
        260,
        715,
        890,
        49,
        477,
        297,
        269,
        578,
        544,
        755,
        734,
        180,
        688,
        996,
        923,
        279,
        620,
        327,
        729,
        517,
        661,
        790,
        892,
        876,
        541,
        48,
        865,
        239,
        767,
        811,
        630,
        928,
        934,
        38,
        745,
        636,
        813,
        912,
        335,
        110,
        389,
        464,
        293,
        550,
        343,
        816,
        205,
        561,
        7,
        570,
        357,
        89,
        142,
        887,
        366,
        687,
        324,
        655,
        438,
        270,
        172,
        763,
        196,
        251,
        14,
        704,
        858,
        737,
        803,
        133,
        554,
        460,
        136,
        706,
        332,
        159,
        743,
        642,
        731,
        782,
        864,
        559,
        615,
        981,
        603,
        530,
        658,
        908,
        966,
        348,
        446,
        726,
        41,
        722,
        26,
        478,
        333,
        395,
        686,
        713,
        904,
        765,
        757,
        404,
        801,
        749,
        860,
        984,
        425,
        899,
        654,
        428,
        83,
        233,
        497,
        416,
        913,
        499,
        990,
        576,
        150,
        77,
        616,
        679,
        766,
        648,
        141,
        694,
        111,
        964,
        906,
        277,
        739,
        806,
        534,
        690,
        112,
        664,
        539,
        689,
        213,
        485,
        73,
        9,
        346,
        867,
        982,
        75,
        337,
        777,
        918,
        696,
        109,
        13,
        490,
        355,
        400,
        586,
        628,
        528,
        914,
        518,
        601,
        231,
        776,
        82,
        916,
        647,
        65,
        288,
        952,
        547,
        977,
        436,
        710,
        191,
        197,
        683,
        537,
        989,
        137,
        362,
        709,
        440,
        57,
        310,
        486,
        740,
        272,
        12,
        968,
        381,
        656,
        953,
        427,
        862,
        919,
        39,
        363,
        496,
        434,
        461,
        388,
        92,
        268,
        815,
        665,
        28,
        174,
        301,
        832,
        78,
        390,
        17,
        455,
        367,
        969,
        909,
        535,
        822,
        328,
        227,
        107,
        22,
        465,
        278,
        84,
        718,
        147,
        331,
        524,
        501,
        377,
        87,
        202,
        134,
        897,
        232,
        721,
        462,
        165,
        532,
        641,
        886,
        447,
        945,
        63,
        130,
        148,
        85,
        780,
        125,
        350,
        146,
        443,
        995,
        480,
        979,
        491,
        839,
        495,
        246,
        138,
        847,
        100,
        792,
        489
    ],
    "Nb of functions evaluations": 400020,
    "Computational time in seconds": 6691.29399394989,
    "Stopping criterion in evaluations": 400000
}